c FILE: i160-131

c SOURCE: From steinlib

c DESCRIPTION: Steinlib instance with 160 nodes and 320 edges.

p edge 160 320
e 1 27
e 1 60
e 1 88
e 1 131
e 2 33
e 2 99
e 2 131
e 2 132
e 2 136
e 3 34
e 3 80
e 3 94
e 3 109
e 3 144
e 4 17
e 4 90
e 4 101
e 4 106
e 4 147
e 5 7
e 5 24
e 5 42
e 5 145
e 5 158
e 6 18
e 6 38
e 6 43
e 6 85
e 6 120
e 6 145
e 7 27
e 7 28
e 7 29
e 7 37
e 7 74
e 7 97
e 7 102
e 8 23
e 8 96
e 9 106
e 9 110
e 9 139
e 10 51
e 10 64
e 10 68
e 10 113
e 10 154
e 11 45
e 11 58
e 11 128
e 11 159
e 12 19
e 12 32
e 12 56
e 12 99
e 12 110
e 13 47
e 13 49
e 13 68
e 13 150
e 14 74
e 14 110
e 15 74
e 16 24
e 16 102
e 16 115
e 16 156
e 17 87
e 17 130
e 18 22
e 18 32
e 18 47
e 18 53
e 18 117
e 19 76
e 19 104
e 19 128
e 19 133
e 20 28
e 20 61
e 20 115
e 20 148
e 21 72
e 21 92
e 21 116
e 22 50
e 22 71
e 22 80
e 23 96
e 23 108
e 24 33
e 24 64
e 24 84
e 24 125
e 24 139
e 24 143
e 25 155
e 25 158
e 26 70
e 26 76
e 26 119
e 27 76
e 27 130
e 27 141
e 27 142
e 27 143
e 27 147
e 28 128
e 29 92
e 29 111
e 29 155
e 30 31
e 30 86
e 30 143
e 31 59
e 31 66
e 31 89
e 31 102
e 31 147
e 32 57
e 32 71
e 32 114
e 32 118
e 32 159
e 33 49
e 34 66
e 34 67
e 34 83
e 35 63
e 35 78
e 35 129
e 36 47
e 36 96
e 37 52
e 37 93
e 37 99
e 37 100
e 37 110
e 37 112
e 37 123
e 37 159
e 39 55
e 39 135
e 39 149
e 40 43
e 40 44
e 40 77
e 40 109
e 40 112
e 40 137
e 41 65
e 41 118
e 41 119
e 41 120
e 42 60
e 43 44
e 43 75
e 44 63
e 44 72
e 44 86
e 44 96
e 44 108
e 44 147
e 45 57
e 46 69
e 46 149
e 47 51
e 47 114
e 48 52
e 48 88
e 48 131
e 49 81
e 49 100
e 50 69
e 50 89
e 50 126
e 50 158
e 51 54
e 51 56
e 51 59
e 51 63
e 51 76
e 51 122
e 51 145
e 52 84
e 52 109
e 52 128
e 52 145
e 53 119
e 53 152
e 55 79
e 55 114
e 55 115
e 56 132
e 56 134
e 56 143
e 57 69
e 57 107
e 57 110
e 57 139
e 58 85
e 58 114
e 59 81
e 59 105
e 59 110
e 60 73
e 60 83
e 60 103
e 60 123
e 60 146
e 61 74
e 62 83
e 62 123
e 63 72
e 63 86
e 64 103
e 64 121
e 64 124
e 64 152
e 65 110
e 65 147
e 65 149
e 66 120
e 66 138
e 66 159
e 68 88
e 68 89
e 68 122
e 68 157
e 69 139
e 69 149
e 70 71
e 70 78
e 70 97
e 71 91
e 73 157
e 74 76
e 74 83
e 74 122
e 75 79
e 75 83
e 75 93
e 75 116
e 75 125
e 76 141
e 77 144
e 78 94
e 78 106
e 79 80
e 79 132
e 80 101
e 80 117
e 80 143
e 80 144
e 80 156
e 81 115
e 82 96
e 82 151
e 83 127
e 83 154
e 84 152
e 86 115
e 86 152
e 87 88
e 90 93
e 90 144
e 91 101
e 91 110
e 92 128
e 94 98
e 94 140
e 94 147
e 94 150
e 95 113
e 95 156
e 96 141
e 96 147
e 97 143
e 98 145
e 101 139
e 101 153
e 102 115
e 102 136
e 102 155
e 105 141
e 108 122
e 108 123
e 108 134
e 109 117
e 109 144
e 109 146
e 110 117
e 110 159
e 111 138
e 112 122
e 113 144
e 113 147
e 113 149
e 113 159
e 116 124
e 117 119
e 118 145
e 119 123
e 119 141
e 121 138
e 122 128
e 122 129
e 122 154
e 124 150
e 124 153
e 126 146
e 127 132
e 128 141
e 129 140
e 130 137
e 130 148
e 133 137
e 136 160
e 137 157
e 145 156
